NAME : prob35a
TYPE : PDTSP
DIMENSION : 71
EDGE_WEIGHT_TYPE : EUC_2D
NODE_COORD_SECTION
1 592 166
2 302 988
3 481 211
4 640 49
5 2 48
6 162 506
7 183 134
8 457 648
9 441 773
10 865 535
11 239 609
12 52 847
13 778 855
14 514 592
15 68 915
16 9 822
17 545 152
18 188 974
19 652 852
20 405 739
21 224 344
22 623 834
23 676 53
24 80 797
25 893 758
26 329 215
27 701 692
28 887 626
29 198 642
30 52 822
31 114 843
32 974 514
33 345 971
34 267 969
35 843 812
36 992 782
37 839 341
38 578 436
39 853 781
40 11 621
41 980 302
42 717 955
43 257 5
44 850 918
45 719 737
46 109 641
47 476 639
48 449 868
49 323 552
50 825 996
51 242 975
52 926 694
53 447 954
54 112 5
55 415 504
56 930 424
57 639 104
58 567 477
59 505 769
60 972 443
61 995 754
62 497 8
63 525 395
64 473 527
65 678 764
66 911 842
67 296 50
68 368 147
69 282 82
70 139 483
71 594 330
PICKUP_AND_DELIVERY_SECTION
1 0 0 0 0 0 0
2 0 0 0 0 37 0
3 0 0 0 0 38 0
4 0 0 0 0 39 0
5 0 0 0 0 40 0
6 0 0 0 0 41 0
7 0 0 0 0 42 0
8 0 0 0 0 43 0
9 0 0 0 0 44 0
10 0 0 0 0 45 0
11 0 0 0 0 46 0
12 0 0 0 0 47 0
13 0 0 0 0 48 0
14 0 0 0 0 49 0
15 0 0 0 0 50 0
16 0 0 0 0 51 0
17 0 0 0 0 52 0
18 0 0 0 0 53 0
19 0 0 0 0 54 0
20 0 0 0 0 55 0
21 0 0 0 0 56 0
22 0 0 0 0 57 0
23 0 0 0 0 58 0
24 0 0 0 0 59 0
25 0 0 0 0 60 0
26 0 0 0 0 61 0
27 0 0 0 0 62 0
28 0 0 0 0 63 0
29 0 0 0 0 64 0
30 0 0 0 0 65 0
31 0 0 0 0 66 0
32 0 0 0 0 67 0
33 0 0 0 0 68 0
34 0 0 0 0 69 0
35 0 0 0 0 70 0
36 0 0 0 0 71 0
37 0 0 0 0 0 2
38 0 0 0 0 0 3
39 0 0 0 0 0 4
40 0 0 0 0 0 5
41 0 0 0 0 0 6
42 0 0 0 0 0 7
43 0 0 0 0 0 8
44 0 0 0 0 0 9
45 0 0 0 0 0 10
46 0 0 0 0 0 11
47 0 0 0 0 0 12
48 0 0 0 0 0 13
49 0 0 0 0 0 14
50 0 0 0 0 0 15
51 0 0 0 0 0 16
52 0 0 0 0 0 17
53 0 0 0 0 0 18
54 0 0 0 0 0 19
55 0 0 0 0 0 20
56 0 0 0 0 0 21
57 0 0 0 0 0 22
58 0 0 0 0 0 23
59 0 0 0 0 0 24
60 0 0 0 0 0 25
61 0 0 0 0 0 26
62 0 0 0 0 0 27
63 0 0 0 0 0 28
64 0 0 0 0 0 29
65 0 0 0 0 0 30
66 0 0 0 0 0 31
67 0 0 0 0 0 32
68 0 0 0 0 0 33
69 0 0 0 0 0 34
70 0 0 0 0 0 35
71 0 0 0 0 0 36
DEPOT_SECTION
1 
-1
EOF
